proyfinal/src/viki/013/experimentInOfficeAgust.take6.output/0c39ea0c-eb9c-4a72-ab2a-5c23cc198ee2.als.out
Reading from standard input... Use '--help' for help.
============================[ Problem Statistics ]=============================
|                                                                             |
|  Number of variables:         87638                                         |
|  Number of clauses:          161767                                         |
|  Parse time:                   0.03 s                                       |
|                                                                             |
============================[ Search Statistics ]==============================
| Conflicts |          ORIGINAL         |          LEARNT          | Progress |
|           |    Vars  Clauses Literals |    Limit  Clauses Lit/Cl |          |
===============================================================================
|       100 |   65382   116009   289479 |    42536      100     26 | 25.395 % |
|       250 |   65382   116009   289479 |    46790      250     45 | 25.395 % |
|       475 |   65382   116009   289479 |    51469      475     41 | 25.395 % |
|       812 |   65382   116009   289479 |    56616      812     56 | 25.395 % |
|      1318 |   65382   116009   289479 |    62277     1318     76 | 25.395 % |
|      2077 |   65381   115965   289389 |    68505     2073     90 | 25.397 % |
|      3216 |   65381   115965   289389 |    75356     3212     74 | 25.397 % |
|      4924 |   65324   115733   288852 |    82891     4918     79 | 25.462 % |
|      7486 |   57161    90011   225386 |    91181     7293     75 | 34.776 % |
|     11330 |   56911    88977   222983 |   100299    11067     85 | 35.061 % |
|     17096 |   56357    87247   218808 |   110329    12892     86 | 35.693 % |
===============================================================================
restarts              : 66
conflicts             : 19623          (6826 /sec)
decisions             : 88967          (0.00 % random) (30946 /sec)
propagations          : 29393138       (10224166 /sec)
conflict literals     : 1781345        (40.71 % deleted)
Memory used           : 47.56 MB
CPU time              : 2.87487 s

INDETERMINATE
